p cnf 7230 14
-1492 1551 -1555 0
1492 -1551 0
-126 -1500 1556 0
126 -1557 0
-1556 1559 0
1557 -1559 0
1500 -1557 0
-1290 1555 0
1553 -1555 0
-1553 1554 0
1552 -1554 0
1290 -1552 0
-1550 1551 0
1550 -1551 0
